NAME : X-n228-k23
COMMENT : "Generated by Uchoa, Pecin, Pessoa, Poggi, Subramanian, and Vidal (2013)"
TYPE : CVRP
DIMENSION : 228
EDGE_WEIGHT_TYPE : EUC_2D
CAPACITY : 154
NODE_COORD_SECTION
1 550 574
2 177 24
3 448 476
4 934 619
5 323 122
6 430 76
7 364 9
8 988 994
9 91 636
10 938 641
11 979 764
12 4 748
13 420 164
14 294 15
15 304 89
16 362 207
17 770 344
18 67 634
19 90 44
20 712 418
21 299 6
22 997 871
23 38 695
24 830 1000
25 916 622
26 445 107
27 314 222
28 292 519
29 183 344
30 520 434
31 262 283
32 996 902
33 115 158
34 371 61
35 971 352
36 448 484
37 299 89
38 402 147
39 537 431
40 389 48
41 186 22
42 658 505
43 459 528
44 956 900
45 486 383
46 36 651
47 994 713
48 270 100
49 944 606
50 813 917
51 318 42
52 17 369
53 398 280
54 74 760
55 910 623
56 96 604
57 432 96
58 188 17
59 441 480
60 458 124
61 557 620
62 196 51
63 253 137
64 953 658
65 389 0
66 386 127
67 140 683
68 293 75
69 475 386
70 224 487
71 299 157
72 556 346
73 366 110
74 681 864
75 220 97
76 382 140
77 266 88
78 440 423
79 168 19
80 616 244
81 270 177
82 126 666
83 332 85
84 234 26
85 834 571
86 49 602
87 248 74
88 81 696
89 308 43
90 915 675
91 500 518
92 510 353
93 329 86
94 830 724
95 993 634
96 959 600
97 991 973
98 411 25
99 382 303
100 477 58
101 225 31
102 439 456
103 120 710
104 462 471
105 107 134
106 970 995
107 427 501
108 938 650
109 370 16
110 460 140
111 263 59
112 524 19
113 411 89
114 953 944
115 79 357
116 757 867
117 343 121
118 361 316
119 407 508
120 414 117
121 576 591
122 544 44
123 418 27
124 837 660
125 174 487
126 168 601
127 854 575
128 615 52
129 193 51
130 458 659
131 957 641
132 51 647
133 137 714
134 203 140
135 386 146
136 976 649
137 522 26
138 281 121
139 453 69
140 393 25
141 341 532
142 466 153
143 507 472
144 946 963
145 327 78
146 301 135
147 256 139
148 997 980
149 343 173
150 860 622
151 151 798
152 317 211
153 418 6
154 833 694
155 83 641
156 229 449
157 283 204
158 513 697
159 232 96
160 247 22
161 651 664
162 857 701
163 337 72
164 439 65
165 398 106
166 409 24
167 931 476
168 368 92
169 97 676
170 880 606
171 281 199
172 410 110
173 252 22
174 181 147
175 945 948
176 135 618
177 348 443
178 296 39
179 953 368
180 81 826
181 997 734
182 533 134
183 372 134
184 231 681
185 317 479
186 143 603
187 122 38
188 220 898
189 946 690
190 95 37
191 429 9
192 137 64
193 361 258
194 153 65
195 536 296
196 509 404
197 423 59
198 162 759
199 525 342
200 943 678
201 522 195
202 463 29
203 371 335
204 289 136
205 191 568
206 505 381
207 265 55
208 125 62
209 304 44
210 958 610
211 975 966
212 277 631
213 285 169
214 486 111
215 940 621
216 993 964
217 771 548
218 484 276
219 440 455
220 104 561
221 200 61
222 491 62
223 277 169
224 177 695
225 628 312
226 430 429
227 945 994
228 461 608
PICKUP_AND_DELIVERY_SECTION
1 0 0 1000000000 0 0 0
2 0 0 1000000000 0 0 79
3 0 0 1000000000 0 57 0
4 0 0 1000000000 0 0 88
5 0 0 1000000000 0 54 0
6 0 0 1000000000 0 0 92
7 0 0 1000000000 0 84 0
8 0 0 1000000000 0 0 61
9 0 0 1000000000 0 100 0
10 0 0 1000000000 0 0 61
11 0 0 1000000000 0 69 0
12 0 0 1000000000 0 0 78
13 0 0 1000000000 0 54 0
14 0 0 1000000000 0 0 59
15 0 0 1000000000 0 60 0
16 0 0 1000000000 0 0 61
17 0 0 1000000000 0 85 0
18 0 0 1000000000 0 0 67
19 0 0 1000000000 0 96 0
20 0 0 1000000000 0 0 57
21 0 0 1000000000 0 57 0
22 0 0 1000000000 0 0 52
23 0 0 1000000000 0 80 0
24 0 0 1000000000 0 0 60
25 0 0 1000000000 0 71 0
26 0 0 1000000000 0 0 93
27 0 0 1000000000 0 59 0
28 0 0 1000000000 0 0 88
29 0 0 1000000000 0 77 0
30 0 0 1000000000 0 0 50
31 0 0 1000000000 0 98 0
32 0 0 1000000000 0 0 53
33 0 0 1000000000 0 54 0
34 0 0 1000000000 0 0 99
35 0 0 1000000000 0 10 0
36 0 0 1000000000 0 0 9
37 0 0 1000000000 0 8 0
38 0 0 1000000000 0 0 9
39 0 0 1000000000 0 7 0
40 0 0 1000000000 0 0 10
41 0 0 1000000000 0 9 0
42 0 0 1000000000 0 0 2
43 0 0 1000000000 0 3 0
44 0 0 1000000000 0 0 3
45 0 0 1000000000 0 7 0
46 0 0 1000000000 0 0 8
47 0 0 1000000000 0 3 0
48 0 0 1000000000 0 0 2
49 0 0 1000000000 0 2 0
50 0 0 1000000000 0 0 10
51 0 0 1000000000 0 2 0
52 0 0 1000000000 0 0 10
53 0 0 1000000000 0 3 0
54 0 0 1000000000 0 0 9
55 0 0 1000000000 0 7 0
56 0 0 1000000000 0 0 4
57 0 0 1000000000 0 6 0
58 0 0 1000000000 0 0 6
59 0 0 1000000000 0 3 0
60 0 0 1000000000 0 0 3
61 0 0 1000000000 0 9 0
62 0 0 1000000000 0 0 9
63 0 0 1000000000 0 9 0
64 0 0 1000000000 0 0 5
65 0 0 1000000000 0 2 0
66 0 0 1000000000 0 0 10
67 0 0 1000000000 0 2 0
68 0 0 1000000000 0 0 5
69 0 0 1000000000 0 9 0
70 0 0 1000000000 0 0 6
71 0 0 1000000000 0 3 0
72 0 0 1000000000 0 0 7
73 0 0 1000000000 0 10 0
74 0 0 1000000000 0 0 7
75 0 0 1000000000 0 10 0
76 0 0 1000000000 0 0 6
77 0 0 1000000000 0 3 0
78 0 0 1000000000 0 0 10
79 0 0 1000000000 0 6 0
80 0 0 1000000000 0 0 2
81 0 0 1000000000 0 4 0
82 0 0 1000000000 0 0 4
83 0 0 1000000000 0 9 0
84 0 0 1000000000 0 0 5
85 0 0 1000000000 0 9 0
86 0 0 1000000000 0 0 5
87 0 0 1000000000 0 5 0
88 0 0 1000000000 0 0 7
89 0 0 1000000000 0 1 0
90 0 0 1000000000 0 0 10
91 0 0 1000000000 0 4 0
92 0 0 1000000000 0 0 4
93 0 0 1000000000 0 2 0
94 0 0 1000000000 0 0 6
95 0 0 1000000000 0 1 0
96 0 0 1000000000 0 0 2
97 0 0 1000000000 0 1 0
98 0 0 1000000000 0 0 8
99 0 0 1000000000 0 1 0
100 0 0 1000000000 0 0 9
101 0 0 1000000000 0 7 0
102 0 0 1000000000 0 0 1
103 0 0 1000000000 0 9 0
104 0 0 1000000000 0 0 6
105 0 0 1000000000 0 4 0
106 0 0 1000000000 0 0 2
107 0 0 1000000000 0 10 0
108 0 0 1000000000 0 0 7
109 0 0 1000000000 0 10 0
110 0 0 1000000000 0 0 2
111 0 0 1000000000 0 3 0
112 0 0 1000000000 0 0 5
113 0 0 1000000000 0 6 0
114 0 0 1000000000 0 0 7
115 0 0 1000000000 0 4 0
116 0 0 1000000000 0 0 8
117 0 0 1000000000 0 4 0
118 0 0 1000000000 0 0 1
119 0 0 1000000000 0 3 0
120 0 0 1000000000 0 0 4
121 0 0 1000000000 0 2 0
122 0 0 1000000000 0 0 5
123 0 0 1000000000 0 8 0
124 0 0 1000000000 0 0 5
125 0 0 1000000000 0 9 0
126 0 0 1000000000 0 0 3
127 0 0 1000000000 0 10 0
128 0 0 1000000000 0 0 2
129 0 0 1000000000 0 1 0
130 0 0 1000000000 0 0 7
131 0 0 1000000000 0 8 0
132 0 0 1000000000 0 0 2
133 0 0 1000000000 0 3 0
134 0 0 1000000000 0 0 8
135 0 0 1000000000 0 6 0
136 0 0 1000000000 0 0 1
137 0 0 1000000000 0 6 0
138 0 0 1000000000 0 0 8
139 0 0 1000000000 0 5 0
140 0 0 1000000000 0 0 8
141 0 0 1000000000 0 2 0
142 0 0 1000000000 0 0 6
143 0 0 1000000000 0 8 0
144 0 0 1000000000 0 0 4
145 0 0 1000000000 0 10 0
146 0 0 1000000000 0 0 3
147 0 0 1000000000 0 10 0
148 0 0 1000000000 0 0 2
149 0 0 1000000000 0 8 0
150 0 0 1000000000 0 0 9
151 0 0 1000000000 0 5 0
152 0 0 1000000000 0 0 7
153 0 0 1000000000 0 10 0
154 0 0 1000000000 0 0 3
155 0 0 1000000000 0 8 0
156 0 0 1000000000 0 0 7
157 0 0 1000000000 0 2 0
158 0 0 1000000000 0 0 4
159 0 0 1000000000 0 7 0
160 0 0 1000000000 0 0 10
161 0 0 1000000000 0 5 0
162 0 0 1000000000 0 0 10
163 0 0 1000000000 0 7 0
164 0 0 1000000000 0 0 8
165 0 0 1000000000 0 1 0
166 0 0 1000000000 0 0 9
167 0 0 1000000000 0 8 0
168 0 0 1000000000 0 0 4
169 0 0 1000000000 0 7 0
170 0 0 1000000000 0 0 8
171 0 0 1000000000 0 6 0
172 0 0 1000000000 0 0 3
173 0 0 1000000000 0 2 0
174 0 0 1000000000 0 0 4
175 0 0 1000000000 0 3 0
176 0 0 1000000000 0 0 1
177 0 0 1000000000 0 10 0
178 0 0 1000000000 0 0 4
179 0 0 1000000000 0 8 0
180 0 0 1000000000 0 0 10
181 0 0 1000000000 0 5 0
182 0 0 1000000000 0 0 2
183 0 0 1000000000 0 2 0
184 0 0 1000000000 0 0 10
185 0 0 1000000000 0 9 0
186 0 0 1000000000 0 0 7
187 0 0 1000000000 0 6 0
188 0 0 1000000000 0 0 4
189 0 0 1000000000 0 4 0
190 0 0 1000000000 0 0 10
191 0 0 1000000000 0 5 0
192 0 0 1000000000 0 0 8
193 0 0 1000000000 0 6 0
194 0 0 1000000000 0 0 9
195 0 0 1000000000 0 10 0
196 0 0 1000000000 0 0 9
197 0 0 1000000000 0 3 0
198 0 0 1000000000 0 0 5
199 0 0 1000000000 0 6 0
200 0 0 1000000000 0 0 6
201 0 0 1000000000 0 10 0
202 0 0 1000000000 0 0 5
203 0 0 1000000000 0 7 0
204 0 0 1000000000 0 0 3
205 0 0 1000000000 0 1 0
206 0 0 1000000000 0 0 9
207 0 0 1000000000 0 10 0
208 0 0 1000000000 0 0 10
209 0 0 1000000000 0 6 0
210 0 0 1000000000 0 0 1
211 0 0 1000000000 0 1 0
212 0 0 1000000000 0 0 5
213 0 0 1000000000 0 8 0
214 0 0 1000000000 0 0 3
215 0 0 1000000000 0 7 0
216 0 0 1000000000 0 0 4
217 0 0 1000000000 0 2 0
218 0 0 1000000000 0 0 8
219 0 0 1000000000 0 5 0
220 0 0 1000000000 0 0 8
221 0 0 1000000000 0 6 0
222 0 0 1000000000 0 0 5
223 0 0 1000000000 0 7 0
224 0 0 1000000000 0 0 7
225 0 0 1000000000 0 5 0
226 0 0 1000000000 0 0 6
227 0 0 1000000000 0 8 0
228 0 0 1000000000 0 0 7
